(set-info :smt-lib-version 2.6)
(set-logic QF_FPBV)
(set-info :source |Random FP created by PyMPF|)
(set-info :license |https://www.gnu.org/licenses/gpl-3.0.html|)
(set-info :category random)
(set-info :status unsat)
;; fp.from.ubv(BitVec 16)
(declare-const x (_ BitVec 16))
(assert (= x #b1000000111111111))
;; x should be 33279

(declare-const r Float16)
(assert (= r ((_ to_fp_unsigned 5 11) RTZ x)))
(assert (not (fp.eq r ((_ to_fp 5 11) #x780F))))
(check-sat)
(exit)
